DATASET = "thpack5";
INSTANCE = "053";

WIDTH = 233;
HEIGHT = 220;
LENGTH = 587;

NO_OF_SHAPES = 12;
size = [|
  78,37,27 |
  89,70,25 |
  90,84,41 |
  85,75,42 |
  91,77,44 |
  114,87,71 |
  90,37,25 |
  105,80,77 |
  74,71,50 |
  62,57,55 |
  89,45,26 |
  65,54,47 |
|];

verticality = [|
  0,1,1 |
  0,0,1 |
  0,0,1 |
  0,1,1 |
  0,1,1 |
  1,1,1 |
  0,1,1 |
  1,1,1 |
  1,1,1 |
  1,1,1 |
  0,1,1 |
  1,1,1 |
|];

box_count = [
  11,
  18,
  7,
  11,
  10,
  9,
  10,
  5,
  10,
  12,
  8,
  11,
];
